(set-logic ALL)
(set-option :produce-models true)
(declare-sort BoundSet 0)
(declare-sort UnboundSet 0)
(set-option :finite-model-find true)
(declare-fun IsCooler (BoundSet) Bool)
(declare-fun IsInHundredsOfMillionsOfYearsAgo (BoundSet) Bool)
(declare-fun IsWithinLast100MillionYears (BoundSet) Bool)
(declare-fun IsUnparalleled (BoundSet) Bool)
(declare-fun IsWorseThanPreviouslyCalculated (BoundSet) Bool)
(assert (not (=> (and (exists ((a BoundSet)) (exists ((b BoundSet)) (and (IsCooler a) (IsInHundredsOfMillionsOfYearsAgo b)))) (forall ((h BoundSet)) (forall ((g BoundSet)) (=> (IsWithinLast100MillionYears g) (IsInHundredsOfMillionsOfYearsAgo h))))) (exists ((e BoundSet)) (exists ((c BoundSet)) (exists ((f BoundSet)) (and (IsUnparalleled c) (and (IsWithinLast100MillionYears e) (IsWorseThanPreviouslyCalculated f)))))))))
(check-sat)
(get-model)